\* berth *\
Minimize
OBJ: 406 mid_for_y_0 + 405 mid_for_y_1 + 573 mid_for_y_10 + 523 mid_for_y_11
 + 581 mid_for_y_12 + 415 mid_for_y_13 + 550 mid_for_y_14 + 428 mid_for_y_15
 + 424 mid_for_y_16 + 407 mid_for_y_17 + 429 mid_for_y_18 + 405 mid_for_y_19
 + 560 mid_for_y_2 + 545 mid_for_y_20 + 497 mid_for_y_21 + 543 mid_for_y_22
 + 541 mid_for_y_23 + 506 mid_for_y_24 + 433 mid_for_y_25 + 445 mid_for_y_26
 + 548 mid_for_y_27 + 568 mid_for_y_28 + 599 mid_for_y_29 + 589 mid_for_y_3
 + 499 mid_for_y_30 + 566 mid_for_y_31 + 571 mid_for_y_32 + 449 mid_for_y_33
 + 441 mid_for_y_34 + 462 mid_for_y_35 + 491 mid_for_y_36 + 476 mid_for_y_37
 + 525 mid_for_y_38 + 524 mid_for_y_39 + 593 mid_for_y_4 + 565 mid_for_y_40
 + 599 mid_for_y_41 + 420 mid_for_y_42 + 453 mid_for_y_43 + 403 mid_for_y_44
 + 573 mid_for_y_45 + 531 mid_for_y_46 + 594 mid_for_y_47 + 577 mid_for_y_48
 + 541 mid_for_y_49 + 443 mid_for_y_5 + 595 mid_for_y_6 + 501 mid_for_y_7
 + 452 mid_for_y_8 + 478 mid_for_y_9 + 415 mid_x_0 + 442 mid_x_1
 + 430 mid_x_10 + 408 mid_x_11 + 528 mid_x_12 + 410 mid_x_13 + 525 mid_x_14
 + 467 mid_x_15 + 519 mid_x_16 + 437 mid_x_17 + 418 mid_x_18 + 428 mid_x_19
 + 543 mid_x_2 + 530 mid_x_20 + 409 mid_x_21 + 551 mid_x_22 + 476 mid_x_23
 + 564 mid_x_24 + 482 mid_x_25 + 491 mid_x_26 + 428 mid_x_27 + 590 mid_x_28
 + 516 mid_x_29 + 576 mid_x_3 + 536 mid_x_30 + 560 mid_x_31 + 471 mid_x_32
 + 498 mid_x_33 + 540 mid_x_34 + 408 mid_x_35 + 544 mid_x_36 + 497 mid_x_37
 + 544 mid_x_38 + 412 mid_x_39 + 500 mid_x_4 + 490 mid_x_40 + 510 mid_x_41
 + 555 mid_x_42 + 477 mid_x_43 + 515 mid_x_44 + 513 mid_x_45 + 527 mid_x_46
 + 501 mid_x_47 + 468 mid_x_48 + 582 mid_x_49 + 438 mid_x_5 + 598 mid_x_6
 + 423 mid_x_7 + 550 mid_x_8 + 580 mid_x_9
Subject To
_C1: mid_x_0 >= 0
_C10: - mid_x_1 - x_1 <= -743
_C100: mid_for_y_12 >= 0
_C101: mid_for_y_12 - y_12 >= -197
_C102: x_12 <= 1119
_C103: y_12 >= 197
_C104: x_12 >= 0
_C105: mid_x_13 >= 0
_C106: - mid_x_13 - x_13 <= -881
_C107: mid_x_13 - x_13 >= -881
_C108: mid_for_y_13 >= 0
_C109: mid_for_y_13 - y_13 >= -223
_C11: mid_x_1 - x_1 >= -743
_C110: x_13 <= 1116
_C111: y_13 >= 223
_C112: x_13 >= 0
_C113: mid_x_14 >= 0
_C114: - mid_x_14 - x_14 <= -675
_C115: mid_x_14 - x_14 >= -675
_C116: mid_for_y_14 >= 0
_C117: mid_for_y_14 - y_14 >= -486
_C118: x_14 <= 1109
_C119: y_14 >= 486
_C12: mid_for_y_1 >= 0
_C120: x_14 >= 0
_C121: mid_x_15 >= 0
_C122: - mid_x_15 - x_15 <= -916
_C123: mid_x_15 - x_15 >= -916
_C124: mid_for_y_15 >= 0
_C125: mid_for_y_15 - y_15 >= -460
_C126: x_15 <= 1117
_C127: y_15 >= 460
_C128: x_15 >= 0
_C129: mid_x_16 >= 0
_C13: mid_for_y_1 - y_1 >= -203
_C130: - mid_x_16 - x_16 <= -110
_C131: mid_x_16 - x_16 >= -110
_C132: mid_for_y_16 >= 0
_C133: mid_for_y_16 - y_16 >= -220
_C134: x_16 <= 1114
_C135: y_16 >= 220
_C136: x_16 >= 0
_C137: mid_x_17 >= 0
_C138: - mid_x_17 - x_17 <= -319
_C139: mid_x_17 - x_17 >= -319
_C14: x_1 <= 1111
_C140: mid_for_y_17 >= 0
_C141: mid_for_y_17 - y_17 >= -97
_C142: x_17 <= 1110
_C143: y_17 >= 97
_C144: x_17 >= 0
_C145: mid_x_18 >= 0
_C146: - mid_x_18 - x_18 <= -49
_C147: mid_x_18 - x_18 >= -49
_C148: mid_for_y_18 >= 0
_C149: mid_for_y_18 - y_18 >= -250
_C15: y_1 >= 203
_C150: x_18 <= 1103
_C151: y_18 >= 250
_C152: x_18 >= 0
_C153: mid_x_19 >= 0
_C154: - mid_x_19 - x_19 <= -1159
_C155: mid_x_19 - x_19 >= -1159
_C156: mid_for_y_19 >= 0
_C157: mid_for_y_19 - y_19 >= -291
_C158: x_19 <= 1116
_C159: y_19 >= 291
_C16: x_1 >= 0
_C160: x_19 >= 0
_C161: mid_x_20 >= 0
_C162: - mid_x_20 - x_20 <= -511
_C163: mid_x_20 - x_20 >= -511
_C164: mid_for_y_20 >= 0
_C165: mid_for_y_20 - y_20 >= -267
_C166: x_20 <= 1118
_C167: y_20 >= 267
_C168: x_20 >= 0
_C169: mid_x_21 >= 0
_C17: mid_x_2 >= 0
_C170: - mid_x_21 - x_21 <= -413
_C171: mid_x_21 - x_21 >= -413
_C172: mid_for_y_21 >= 0
_C173: mid_for_y_21 - y_21 >= -360
_C174: x_21 <= 1114
_C175: y_21 >= 360
_C176: x_21 >= 0
_C177: mid_x_22 >= 0
_C178: - mid_x_22 - x_22 <= -650
_C179: mid_x_22 - x_22 >= -650
_C18: - mid_x_2 - x_2 <= -1030
_C180: mid_for_y_22 >= 0
_C181: mid_for_y_22 - y_22 >= -103
_C182: x_22 <= 1107
_C183: y_22 >= 103
_C184: x_22 >= 0
_C185: mid_x_23 >= 0
_C186: - mid_x_23 - x_23 <= -238
_C187: mid_x_23 - x_23 >= -238
_C188: mid_for_y_23 >= 0
_C189: mid_for_y_23 - y_23 >= -331
_C19: mid_x_2 - x_2 >= -1030
_C190: x_23 <= 1100
_C191: y_23 >= 331
_C192: x_23 >= 0
_C193: mid_x_24 >= 0
_C194: - mid_x_24 - x_24 <= -789
_C195: mid_x_24 - x_24 >= -789
_C196: mid_for_y_24 >= 0
_C197: mid_for_y_24 - y_24 >= -277
_C198: x_24 <= 1100
_C199: y_24 >= 277
_C2: - mid_x_0 - x_0 <= -915
_C20: mid_for_y_2 >= 0
_C200: x_24 >= 0
_C201: mid_x_25 >= 0
_C202: - mid_x_25 - x_25 <= -1181
_C203: mid_x_25 - x_25 >= -1181
_C204: mid_for_y_25 >= 0
_C205: mid_for_y_25 - y_25 >= -57
_C206: x_25 <= 1118
_C207: y_25 >= 57
_C208: x_25 >= 0
_C209: mid_x_26 >= 0
_C21: mid_for_y_2 - y_2 >= -416
_C210: - mid_x_26 - x_26 <= -276
_C211: mid_x_26 - x_26 >= -276
_C212: mid_for_y_26 >= 0
_C213: mid_for_y_26 - y_26 >= -384
_C214: x_26 <= 1114
_C215: y_26 >= 384
_C216: x_26 >= 0
_C217: mid_x_27 >= 0
_C218: - mid_x_27 - x_27 <= -211
_C219: mid_x_27 - x_27 >= -211
_C22: x_2 <= 1118
_C220: mid_for_y_27 >= 0
_C221: mid_for_y_27 - y_27 >= -167
_C222: x_27 <= 1119
_C223: y_27 >= 167
_C224: x_27 >= 0
_C225: mid_x_28 >= 0
_C226: - mid_x_28 - x_28 <= -914
_C227: mid_x_28 - x_28 >= -914
_C228: mid_for_y_28 >= 0
_C229: mid_for_y_28 - y_28 >= -104
_C23: y_2 >= 416
_C230: x_28 <= 1114
_C231: y_28 >= 104
_C232: x_28 >= 0
_C233: mid_x_29 >= 0
_C234: - mid_x_29 - x_29 <= -222
_C235: mid_x_29 - x_29 >= -222
_C236: mid_for_y_29 >= 0
_C237: mid_for_y_29 - y_29 >= -120
_C238: x_29 <= 1106
_C239: y_29 >= 120
_C24: x_2 >= 0
_C240: x_29 >= 0
_C241: mid_x_30 >= 0
_C242: - mid_x_30 - x_30 <= -227
_C243: mid_x_30 - x_30 >= -227
_C244: mid_for_y_30 >= 0
_C245: mid_for_y_30 - y_30 >= -137
_C246: x_30 <= 1100
_C247: y_30 >= 137
_C248: x_30 >= 0
_C249: mid_x_31 >= 0
_C25: mid_x_3 >= 0
_C250: - mid_x_31 - x_31 <= -153
_C251: mid_x_31 - x_31 >= -153
_C252: mid_for_y_31 >= 0
_C253: mid_for_y_31 - y_31 >= -314
_C254: x_31 <= 1118
_C255: y_31 >= 314
_C256: x_31 >= 0
_C257: mid_x_32 >= 0
_C258: - mid_x_32 - x_32 <= -127
_C259: mid_x_32 - x_32 >= -127
_C26: - mid_x_3 - x_3 <= -198
_C260: mid_for_y_32 >= 0
_C261: mid_for_y_32 - y_32 >= -225
_C262: x_32 <= 1115
_C263: y_32 >= 225
_C264: x_32 >= 0
_C265: mid_x_33 >= 0
_C266: - mid_x_33 - x_33 <= -499
_C267: mid_x_33 - x_33 >= -499
_C268: mid_for_y_33 >= 0
_C269: mid_for_y_33 - y_33 >= -161
_C27: mid_x_3 - x_3 >= -198
_C270: x_33 <= 1100
_C271: y_33 >= 161
_C272: x_33 >= 0
_C273: mid_x_34 >= 0
_C274: - mid_x_34 - x_34 <= -131
_C275: mid_x_34 - x_34 >= -131
_C276: mid_for_y_34 >= 0
_C277: mid_for_y_34 - y_34 >= -265
_C278: x_34 <= 1115
_C279: y_34 >= 265
_C28: mid_for_y_3 >= 0
_C280: x_34 >= 0
_C281: mid_x_35 >= 0
_C282: - mid_x_35 - x_35 <= -1125
_C283: mid_x_35 - x_35 >= -1125
_C284: mid_for_y_35 >= 0
_C285: mid_for_y_35 - y_35 >= -202
_C286: x_35 <= 1111
_C287: y_35 >= 202
_C288: x_35 >= 0
_C289: mid_x_36 >= 0
_C29: mid_for_y_3 - y_3 >= -206
_C290: - mid_x_36 - x_36 <= -1187
_C291: mid_x_36 - x_36 >= -1187
_C292: mid_for_y_36 >= 0
_C293: mid_for_y_36 - y_36 >= -475
_C294: x_36 <= 1119
_C295: y_36 >= 475
_C296: x_36 >= 0
_C297: mid_x_37 >= 0
_C298: - mid_x_37 - x_37 <= -1075
_C299: mid_x_37 - x_37 >= -1075
_C3: mid_x_0 - x_0 >= -915
_C30: x_3 <= 1114
_C300: mid_for_y_37 >= 0
_C301: mid_for_y_37 - y_37 >= -242
_C302: x_37 <= 1104
_C303: y_37 >= 242
_C304: x_37 >= 0
_C305: mid_x_38 >= 0
_C306: - mid_x_38 - x_38 <= -552
_C307: mid_x_38 - x_38 >= -552
_C308: mid_for_y_38 >= 0
_C309: mid_for_y_38 - y_38 >= -357
_C31: y_3 >= 206
_C310: x_38 <= 1110
_C311: y_38 >= 357
_C312: x_38 >= 0
_C313: mid_x_39 >= 0
_C314: - mid_x_39 - x_39 <= -154
_C315: mid_x_39 - x_39 >= -154
_C316: mid_for_y_39 >= 0
_C317: mid_for_y_39 - y_39 >= -51
_C318: x_39 <= 1109
_C319: y_39 >= 51
_C32: x_3 >= 0
_C320: x_39 >= 0
_C321: mid_x_40 >= 0
_C322: - mid_x_40 - x_40 <= -410
_C323: mid_x_40 - x_40 >= -410
_C324: mid_for_y_40 >= 0
_C325: mid_for_y_40 - y_40 >= -344
_C326: x_40 <= 1105
_C327: y_40 >= 344
_C328: x_40 >= 0
_C329: mid_x_41 >= 0
_C33: mid_x_4 >= 0
_C330: - mid_x_41 - x_41 <= -428
_C331: mid_x_41 - x_41 >= -428
_C332: mid_for_y_41 >= 0
_C333: mid_for_y_41 - y_41 >= -42
_C334: x_41 <= 1109
_C335: y_41 >= 42
_C336: x_41 >= 0
_C337: mid_x_42 >= 0
_C338: - mid_x_42 - x_42 <= -576
_C339: mid_x_42 - x_42 >= -576
_C34: - mid_x_4 - x_4 <= -1054
_C340: mid_for_y_42 >= 0
_C341: mid_for_y_42 - y_42 >= -316
_C342: x_42 <= 1110
_C343: y_42 >= 316
_C344: x_42 >= 0
_C345: mid_x_43 >= 0
_C346: - mid_x_43 - x_43 <= -328
_C347: mid_x_43 - x_43 >= -328
_C348: mid_for_y_43 >= 0
_C349: mid_for_y_43 - y_43 >= -26
_C35: mid_x_4 - x_4 >= -1054
_C350: x_43 <= 1110
_C351: y_43 >= 26
_C352: x_43 >= 0
_C353: mid_x_44 >= 0
_C354: - mid_x_44 - x_44 <= -320
_C355: mid_x_44 - x_44 >= -320
_C356: mid_for_y_44 >= 0
_C357: mid_for_y_44 - y_44 >= -135
_C358: x_44 <= 1101
_C359: y_44 >= 135
_C36: mid_for_y_4 >= 0
_C360: x_44 >= 0
_C361: mid_x_45 >= 0
_C362: - mid_x_45 - x_45 <= -777
_C363: mid_x_45 - x_45 >= -777
_C364: mid_for_y_45 >= 0
_C365: mid_for_y_45 - y_45 >= -190
_C366: x_45 <= 1111
_C367: y_45 >= 190
_C368: x_45 >= 0
_C369: mid_x_46 >= 0
_C37: mid_for_y_4 - y_4 >= -300
_C370: - mid_x_46 - x_46 <= -681
_C371: mid_x_46 - x_46 >= -681
_C372: mid_for_y_46 >= 0
_C373: mid_for_y_46 - y_46 >= -481
_C374: x_46 <= 1116
_C375: y_46 >= 481
_C376: x_46 >= 0
_C377: mid_x_47 >= 0
_C378: - mid_x_47 - x_47 <= -195
_C379: mid_x_47 - x_47 >= -195
_C38: x_4 <= 1114
_C380: mid_for_y_47 >= 0
_C381: mid_for_y_47 - y_47 >= -113
_C382: x_47 <= 1110
_C383: y_47 >= 113
_C384: x_47 >= 0
_C385: mid_x_48 >= 0
_C386: - mid_x_48 - x_48 <= -1066
_C387: mid_x_48 - x_48 >= -1066
_C388: mid_for_y_48 >= 0
_C389: mid_for_y_48 - y_48 >= -258
_C39: y_4 >= 300
_C390: x_48 <= 1103
_C391: y_48 >= 258
_C392: x_48 >= 0
_C393: mid_x_49 >= 0
_C394: - mid_x_49 - x_49 <= -712
_C395: mid_x_49 - x_49 >= -712
_C396: mid_for_y_49 >= 0
_C397: mid_for_y_49 - y_49 >= -215
_C398: x_49 <= 1105
_C399: y_49 >= 215
_C4: mid_for_y_0 >= 0
_C40: x_4 >= 0
_C400: x_49 >= 0
_C401: - x_1 + x_12 + 100000000 z_x_(12,_1) <= 99999919
_C402: x_1 - x_12 + 100000000 z_x_(1,_12) <= 99999911
_C403: - y_1 + y_12 + 100000000 z_y_(12,_1) <= 99999971
_C404: y_1 - y_12 + 100000000 z_y_(1,_12) <= 99999973
_C405: z_x_(1,_12) + z_x_(12,_1) + z_y_(1,_12) + z_y_(12,_1) >= 1
_C406: x_19 - x_4 + 100000000 z_x_(19,_4) <= 99999916
_C407: - x_19 + x_4 + 100000000 z_x_(4,_19) <= 99999914
_C408: y_19 - y_4 + 100000000 z_y_(19,_4) <= 99999972
_C409: - y_19 + y_4 + 100000000 z_y_(4,_19) <= 99999973
_C41: mid_x_5 >= 0
_C410: z_x_(19,_4) + z_x_(4,_19) + z_y_(19,_4) + z_y_(4,_19) >= 1
_C411: - x_29 + x_30 + 100000000 z_x_(30,_29) <= 99999900
_C412: x_29 - x_30 + 100000000 z_x_(29,_30) <= 99999906
_C413: - y_29 + y_30 + 100000000 z_y_(30,_29) <= 99999975
_C414: y_29 - y_30 + 100000000 z_y_(29,_30) <= 99999974
_C415: z_x_(29,_30) + z_x_(30,_29) + z_y_(29,_30) + z_y_(30,_29) >= 1
_C416: - x_3 + x_32 + 100000000 z_x_(32,_3) <= 99999915
_C417: x_3 - x_32 + 100000000 z_x_(3,_32) <= 99999914
_C418: - y_3 + y_32 + 100000000 z_y_(32,_3) <= 99999973
_C419: y_3 - y_32 + 100000000 z_y_(3,_32) <= 99999972
_C42: - mid_x_5 - x_5 <= -59
_C420: z_x_(3,_32) + z_x_(32,_3) + z_y_(3,_32) + z_y_(32,_3) >= 1
_C421: - x_16 + x_32 + 100000000 z_x_(32,_16) <= 99999915
_C422: x_16 - x_32 + 100000000 z_x_(16,_32) <= 99999914
_C423: - y_16 + y_32 + 100000000 z_y_(32,_16) <= 99999973
_C424: y_16 - y_32 + 100000000 z_y_(16,_32) <= 99999974
_C425: z_x_(16,_32) + z_x_(32,_16) + z_y_(16,_32) + z_y_(32,_16) >= 1
_C426: - x_18 + x_32 + 100000000 z_x_(32,_18) <= 99999915
_C427: x_18 - x_32 + 100000000 z_x_(18,_32) <= 99999903
_C428: - y_18 + y_32 + 100000000 z_y_(32,_18) <= 99999973
_C429: y_18 - y_32 + 100000000 z_y_(18,_32) <= 99999974
_C43: mid_x_5 - x_5 >= -59
_C430: z_x_(18,_32) + z_x_(32,_18) + z_y_(18,_32) + z_y_(32,_18) >= 1
_C431: - x_18 + x_34 + 100000000 z_x_(34,_18) <= 99999915
_C432: x_18 - x_34 + 100000000 z_x_(18,_34) <= 99999903
_C433: - y_18 + y_34 + 100000000 z_y_(34,_18) <= 99999973
_C434: y_18 - y_34 + 100000000 z_y_(18,_34) <= 99999974
_C435: z_x_(18,_34) + z_x_(34,_18) + z_y_(18,_34) + z_y_(34,_18) >= 1
_C436: - x_21 + x_40 + 100000000 z_x_(40,_21) <= 99999905
_C437: x_21 - x_40 + 100000000 z_x_(21,_40) <= 99999914
_C438: - y_21 + y_40 + 100000000 z_y_(40,_21) <= 99999979
_C439: y_21 - y_40 + 100000000 z_y_(21,_40) <= 99999974
_C44: mid_for_y_5 >= 0
_C440: z_x_(21,_40) + z_x_(40,_21) + z_y_(21,_40) + z_y_(40,_21) >= 1
_C441: - x_30 + x_44 + 100000000 z_x_(44,_30) <= 99999901
_C442: x_30 - x_44 + 100000000 z_x_(30,_44) <= 99999900
_C443: - y_30 + y_44 + 100000000 z_y_(44,_30) <= 99999977
_C444: y_30 - y_44 + 100000000 z_y_(30,_44) <= 99999975
_C445: z_x_(30,_44) + z_x_(44,_30) + z_y_(30,_44) + z_y_(44,_30) >= 1
_C446: - x_1 + x_45 + 100000000 z_x_(45,_1) <= 99999911
_C447: x_1 - x_45 + 100000000 z_x_(1,_45) <= 99999911
_C448: - y_1 + y_45 + 100000000 z_y_(45,_1) <= 99999971
_C449: y_1 - y_45 + 100000000 z_y_(1,_45) <= 99999973
_C45: mid_for_y_5 - y_5 >= -43
_C450: z_x_(1,_45) + z_x_(45,_1) + z_y_(1,_45) + z_y_(45,_1) >= 1
_C451: - x_12 + x_45 + 100000000 z_x_(45,_12) <= 99999911
_C452: x_12 - x_45 + 100000000 z_x_(12,_45) <= 99999919
_C453: - y_12 + y_45 + 100000000 z_y_(45,_12) <= 99999971
_C454: y_12 - y_45 + 100000000 z_y_(12,_45) <= 99999971
_C455: z_x_(12,_45) + z_x_(45,_12) + z_y_(12,_45) + z_y_(45,_12) >= 1
_C456: x_46 - x_6 + 100000000 z_x_(46,_6) <= 99999916
_C457: - x_46 + x_6 + 100000000 z_x_(6,_46) <= 99999912
_C458: y_46 - y_6 + 100000000 z_y_(46,_6) <= 99999971
_C459: - y_46 + y_6 + 100000000 z_y_(6,_46) <= 99999980
_C46: x_5 <= 1106
_C460: z_x_(46,_6) + z_x_(6,_46) + z_y_(46,_6) + z_y_(6,_46) >= 1
_C461: - x_14 + x_46 + 100000000 z_x_(46,_14) <= 99999916
_C462: x_14 - x_46 + 100000000 z_x_(14,_46) <= 99999909
_C463: - y_14 + y_46 + 100000000 z_y_(46,_14) <= 99999971
_C464: y_14 - y_46 + 100000000 z_y_(14,_46) <= 99999981
_C465: z_x_(14,_46) + z_x_(46,_14) + z_y_(14,_46) + z_y_(46,_14) >= 1
_C466: - x_29 + x_47 + 100000000 z_x_(47,_29) <= 99999910
_C467: x_29 - x_47 + 100000000 z_x_(29,_47) <= 99999906
_C468: - y_29 + y_47 + 100000000 z_y_(47,_29) <= 99999972
_C469: y_29 - y_47 + 100000000 z_y_(29,_47) <= 99999974
_C47: y_5 >= 43
_C470: z_x_(29,_47) + z_x_(47,_29) + z_y_(29,_47) + z_y_(47,_29) >= 1
_C471: - x_30 + x_47 + 100000000 z_x_(47,_30) <= 99999910
_C472: x_30 - x_47 + 100000000 z_x_(30,_47) <= 99999900
_C473: - y_30 + y_47 + 100000000 z_y_(47,_30) <= 99999972
_C474: y_30 - y_47 + 100000000 z_y_(30,_47) <= 99999975
_C475: z_x_(30,_47) + z_x_(47,_30) + z_y_(30,_47) + z_y_(47,_30) >= 1
_C476: - x_37 + x_48 + 100000000 z_x_(48,_37) <= 99999903
_C477: x_37 - x_48 + 100000000 z_x_(37,_48) <= 99999904
_C478: - y_37 + y_48 + 100000000 z_y_(48,_37) <= 99999972
_C479: y_37 - y_48 + 100000000 z_y_(37,_48) <= 99999971
_C48: x_5 >= 0
_C480: z_x_(37,_48) + z_x_(48,_37) + z_y_(37,_48) + z_y_(48,_37) >= 1
_C481: - x_1 + x_49 + 100000000 z_x_(49,_1) <= 99999905
_C482: x_1 - x_49 + 100000000 z_x_(1,_49) <= 99999911
_C483: - y_1 + y_49 + 100000000 z_y_(49,_1) <= 99999976
_C484: y_1 - y_49 + 100000000 z_y_(1,_49) <= 99999973
_C485: z_x_(1,_49) + z_x_(49,_1) + z_y_(1,_49) + z_y_(49,_1) >= 1
_C486: - x_12 + x_49 + 100000000 z_x_(49,_12) <= 99999905
_C487: x_12 - x_49 + 100000000 z_x_(12,_49) <= 99999919
_C488: - y_12 + y_49 + 100000000 z_y_(49,_12) <= 99999976
_C489: y_12 - y_49 + 100000000 z_y_(12,_49) <= 99999971
_C49: mid_x_6 >= 0
_C490: z_x_(12,_49) + z_x_(49,_12) + z_y_(12,_49) + z_y_(49,_12) >= 1
_C491: - x_45 + x_49 + 100000000 z_x_(49,_45) <= 99999905
_C492: x_45 - x_49 + 100000000 z_x_(45,_49) <= 99999911
_C493: - y_45 + y_49 + 100000000 z_y_(49,_45) <= 99999976
_C494: y_45 - y_49 + 100000000 z_y_(45,_49) <= 99999971
_C495: z_x_(45,_49) + z_x_(49,_45) + z_y_(45,_49) + z_y_(49,_45) >= 1
_C496: - x_12 + x_13 + 100000000 z_x_(13,_12) <= 99999916
_C497: x_12 - x_13 + 100000000 z_x_(12,_13) <= 99999919
_C498: - y_12 + y_13 + 100000000 z_y_(13,_12) <= 99999977
_C499: y_12 - y_13 + 100000000 z_y_(12,_13) <= 99999971
_C5: mid_for_y_0 - y_0 >= -14
_C50: - mid_x_6 - x_6 <= -734
_C500: z_x_(12,_13) + z_x_(13,_12) + z_y_(12,_13) + z_y_(13,_12) >= 1
_C501: - x_27 + x_30 + 100000000 z_x_(30,_27) <= 99999900
_C502: x_27 - x_30 + 100000000 z_x_(27,_30) <= 99999919
_C503: - y_27 + y_30 + 100000000 z_y_(30,_27) <= 99999975
_C504: y_27 - y_30 + 100000000 z_y_(27,_30) <= 99999973
_C505: z_x_(27,_30) + z_x_(30,_27) + z_y_(27,_30) + z_y_(30,_27) >= 1
_C506: - x_32 + x_34 + 100000000 z_x_(34,_32) <= 99999915
_C507: x_32 - x_34 + 100000000 z_x_(32,_34) <= 99999915
_C508: - y_32 + y_34 + 100000000 z_y_(34,_32) <= 99999973
_C509: y_32 - y_34 + 100000000 z_y_(32,_34) <= 99999973
_C51: mid_x_6 - x_6 >= -734
_C510: z_x_(32,_34) + z_x_(34,_32) + z_y_(32,_34) + z_y_(34,_32) >= 1
_C511: - x_19 + x_48 + 100000000 z_x_(48,_19) <= 99999903
_C512: x_19 - x_48 + 100000000 z_x_(19,_48) <= 99999916
_C513: - y_19 + y_48 + 100000000 z_y_(48,_19) <= 99999972
_C514: y_19 - y_48 + 100000000 z_y_(19,_48) <= 99999972
_C515: z_x_(19,_48) + z_x_(48,_19) + z_y_(19,_48) + z_y_(48,_19) >= 1
_C516: - x_16 + x_18 + 100000000 z_x_(18,_16) <= 99999903
_C517: x_16 - x_18 + 100000000 z_x_(16,_18) <= 99999914
_C518: - y_16 + y_18 + 100000000 z_y_(18,_16) <= 99999974
_C519: y_16 - y_18 + 100000000 z_y_(16,_18) <= 99999974
_C52: mid_for_y_6 >= 0
_C520: z_x_(16,_18) + z_x_(18,_16) + z_y_(16,_18) + z_y_(18,_16) >= 1
_C521: - x_27 + x_29 + 100000000 z_x_(29,_27) <= 99999906
_C522: x_27 - x_29 + 100000000 z_x_(27,_29) <= 99999919
_C523: - y_27 + y_29 + 100000000 z_y_(29,_27) <= 99999974
_C524: y_27 - y_29 + 100000000 z_y_(27,_29) <= 99999973
_C525: z_x_(27,_29) + z_x_(29,_27) + z_y_(27,_29) + z_y_(29,_27) >= 1
_C526: - x_3 + x_30 + 100000000 z_x_(30,_3) <= 99999900
_C527: x_3 - x_30 + 100000000 z_x_(3,_30) <= 99999914
_C528: - y_3 + y_30 + 100000000 z_y_(30,_3) <= 99999975
_C529: y_3 - y_30 + 100000000 z_y_(3,_30) <= 99999972
_C53: mid_for_y_6 - y_6 >= -462
_C530: z_x_(3,_30) + z_x_(30,_3) + z_y_(3,_30) + z_y_(30,_3) >= 1
_C531: x_27 - x_3 + 100000000 z_x_(27,_3) <= 99999919
_C532: - x_27 + x_3 + 100000000 z_x_(3,_27) <= 99999914
_C533: y_27 - y_3 + 100000000 z_y_(27,_3) <= 99999973
_C534: - y_27 + y_3 + 100000000 z_y_(3,_27) <= 99999972
_C535: z_x_(27,_3) + z_x_(3,_27) + z_y_(27,_3) + z_y_(3,_27) >= 1
_C54: x_6 <= 1112
_C55: y_6 >= 462
_C56: x_6 >= 0
_C57: mid_x_7 >= 0
_C58: - mid_x_7 - x_7 <= -542
_C59: mid_x_7 - x_7 >= -542
_C6: x_0 <= 1111
_C60: mid_for_y_7 >= 0
_C61: mid_for_y_7 - y_7 >= -406
_C62: x_7 <= 1101
_C63: y_7 >= 406
_C64: x_7 >= 0
_C65: mid_x_8 >= 0
_C66: - mid_x_8 - x_8 <= -383
_C67: mid_x_8 - x_8 >= -383
_C68: mid_for_y_8 >= 0
_C69: mid_for_y_8 - y_8 >= -420
_C7: y_0 >= 14
_C70: x_8 <= 1117
_C71: y_8 >= 420
_C72: x_8 >= 0
_C73: mid_x_9 >= 0
_C74: - mid_x_9 - x_9 <= -98
_C75: mid_x_9 - x_9 >= -98
_C76: mid_for_y_9 >= 0
_C77: mid_for_y_9 - y_9 >= -144
_C78: x_9 <= 1107
_C79: y_9 >= 144
_C8: x_0 >= 0
_C80: x_9 >= 0
_C81: mid_x_10 >= 0
_C82: - mid_x_10 - x_10 <= -743
_C83: mid_x_10 - x_10 >= -743
_C84: mid_for_y_10 >= 0
_C85: mid_for_y_10 - y_10 >= -364
_C86: x_10 <= 1112
_C87: y_10 >= 364
_C88: x_10 >= 0
_C89: mid_x_11 >= 0
_C9: mid_x_1 >= 0
_C90: - mid_x_11 - x_11 <= -312
_C91: mid_x_11 - x_11 >= -312
_C92: mid_for_y_11 >= 0
_C93: mid_for_y_11 - y_11 >= -53
_C94: x_11 <= 1107
_C95: y_11 >= 53
_C96: x_11 >= 0
_C97: mid_x_12 >= 0
_C98: - mid_x_12 - x_12 <= -779
_C99: mid_x_12 - x_12 >= -779
Binaries
z_x_(1,_12)
z_x_(1,_45)
z_x_(1,_49)
z_x_(12,_1)
z_x_(12,_13)
z_x_(12,_45)
z_x_(12,_49)
z_x_(13,_12)
z_x_(14,_46)
z_x_(16,_18)
z_x_(16,_32)
z_x_(18,_16)
z_x_(18,_32)
z_x_(18,_34)
z_x_(19,_4)
z_x_(19,_48)
z_x_(21,_40)
z_x_(27,_29)
z_x_(27,_3)
z_x_(27,_30)
z_x_(29,_27)
z_x_(29,_30)
z_x_(29,_47)
z_x_(3,_27)
z_x_(3,_30)
z_x_(3,_32)
z_x_(30,_27)
z_x_(30,_29)
z_x_(30,_3)
z_x_(30,_44)
z_x_(30,_47)
z_x_(32,_16)
z_x_(32,_18)
z_x_(32,_3)
z_x_(32,_34)
z_x_(34,_18)
z_x_(34,_32)
z_x_(37,_48)
z_x_(4,_19)
z_x_(40,_21)
z_x_(44,_30)
z_x_(45,_1)
z_x_(45,_12)
z_x_(45,_49)
z_x_(46,_14)
z_x_(46,_6)
z_x_(47,_29)
z_x_(47,_30)
z_x_(48,_19)
z_x_(48,_37)
z_x_(49,_1)
z_x_(49,_12)
z_x_(49,_45)
z_x_(6,_46)
z_y_(1,_12)
z_y_(1,_45)
z_y_(1,_49)
z_y_(12,_1)
z_y_(12,_13)
z_y_(12,_45)
z_y_(12,_49)
z_y_(13,_12)
z_y_(14,_46)
z_y_(16,_18)
z_y_(16,_32)
z_y_(18,_16)
z_y_(18,_32)
z_y_(18,_34)
z_y_(19,_4)
z_y_(19,_48)
z_y_(21,_40)
z_y_(27,_29)
z_y_(27,_3)
z_y_(27,_30)
z_y_(29,_27)
z_y_(29,_30)
z_y_(29,_47)
z_y_(3,_27)
z_y_(3,_30)
z_y_(3,_32)
z_y_(30,_27)
z_y_(30,_29)
z_y_(30,_3)
z_y_(30,_44)
z_y_(30,_47)
z_y_(32,_16)
z_y_(32,_18)
z_y_(32,_3)
z_y_(32,_34)
z_y_(34,_18)
z_y_(34,_32)
z_y_(37,_48)
z_y_(4,_19)
z_y_(40,_21)
z_y_(44,_30)
z_y_(45,_1)
z_y_(45,_12)
z_y_(45,_49)
z_y_(46,_14)
z_y_(46,_6)
z_y_(47,_29)
z_y_(47,_30)
z_y_(48,_19)
z_y_(48,_37)
z_y_(49,_1)
z_y_(49,_12)
z_y_(49,_45)
z_y_(6,_46)
End
